 $contrl RUNTYP=energy coord=fragonly units=angs $end
 $system timlim=999999 mwords=100 $end
 $efrag
 iscrelec=1 iscrpol=1 iscrdisp=1
FRAGNAME=01867a
A01C       22.08400000    15.31800000    16.64400000
A02C       21.37600000    15.85900000    15.39600000
A03C       23.15600000    16.23700000    17.18600000
FRAGNAME=01867b
A01C       23.79600000    12.36900000     9.21900000
A02C       25.02400000    14.19000000    12.24300000
A03C       24.25200000    13.15300000    11.67000000
 $end
 $01867A
EFP DATA FOR FRAGNAME SCFTYP=RHF     ... GENERATED WITH BASIS SET=XXX
 COORDINATES (BOHR)
A01C      -0.0134618605  -1.0682135225  -0.0084175922  12.0000000  6.0
A02C       2.4203354889   0.5046131520  -0.0036940224  12.0000000  6.0
A03C      -2.4032304086   0.4994994555   0.0027202000  12.0000000  6.0
A04H      -0.0595746543  -2.2880194162  -1.6691552544   1.0078250  1.0
A05H       0.0154262319  -2.2671325249   1.6581122025   1.0078250  1.0
A06H       2.3598962704   1.7373919580   1.6464182102   1.0078250  1.0
A07H      -2.3653268534   1.7431992886   1.6499288985   1.0078250  1.0
A08H      -2.4258650300   1.6919350179  -1.6830141049   1.0078250  1.0
A09H       2.5588469108   1.6465555841  -1.7350967777   1.0078250  1.0
A10H       3.9979069514  -0.8368320443   0.1774398223   1.0078250  1.0
A11H      -4.1246890216  -0.6638592259   0.0671889729   1.0078250  1.0
BO21       1.2034368142  -0.2818001853  -0.0060558073   0.0000000  0.0
BO31      -1.2083461346  -0.2843570335  -0.0028486961   0.0000000  0.0
BO41      -0.0365182574  -1.6781164694  -0.8387864233   0.0000000  0.0
BO51       0.0009821857  -1.6676730237   0.8248473052   0.0000000  0.0
BO62       2.3901158797   1.1210025550   0.8213620939   0.0000000  0.0
BO73      -2.3842786310   1.1213493720   0.8263245492   0.0000000  0.0
BO83      -2.4145477193   1.0957172367  -0.8401469525   0.0000000  0.0
BO92       2.4895911998   1.0755843680  -0.8693954001   0.0000000  0.0
BO102      3.2091212201  -0.1661094462   0.0868728999   0.0000000  0.0
BO113     -3.2639597151  -0.0821798852   0.0349545864   0.0000000  0.0
 STOP
 MONOPOLES 
A01C      -5.7614558877   6.00000
A02C      -5.8306933541   6.00000
A03C      -5.8382273260   6.00000
A04H      -0.8146730663   1.00000
A05H      -0.8356141691   1.00000
A06H      -0.8010074559   1.00000
A07H      -0.8107521160   1.00000
A08H      -0.7929300821   1.00000
A09H      -0.7774045892   1.00000
A10H      -0.7543856114   1.00000
A11H      -0.7399480116   1.00000
BO21       0.2446817359   0.00000
BO31       0.1297685391   0.00000
BO41      -0.3155491116   0.00000
BO51      -0.3348346787   0.00000
BO62      -0.3403601060   0.00000
BO73      -0.3357088748   0.00000
BO83      -0.3126354427   0.00000
BO92      -0.3210941334   0.00000
BO102     -0.3247387060   0.00000
BO113     -0.3324375525   0.00000
 STOP
 DIPOLES 
A01C       -0.0149992070    0.0787737441   -0.0148409504
A02C        0.1594694835   -0.0844273779    0.0055573998
A03C       -0.1565516080   -0.1067590154    0.0007117832
A04H       -0.0040715586   -0.0248773600   -0.0267309085
A05H        0.0012743453   -0.0357690267    0.0346771172
A06H        0.0038533625    0.0272136278    0.0324837647
A07H       -0.0049507290    0.0287785084    0.0325928917
A08H       -0.0002596356    0.0226414601   -0.0285883106
A09H        0.0019118321    0.0207064529   -0.0291674239
A10H        0.0115027846   -0.0215948595    0.0027218475
A11H       -0.0096524540   -0.0136681362    0.0008700900
BO21       -0.0912211541    0.1343553535    0.0199753374
BO31       -0.0304328316    0.0461637039    0.0101733853
BO41        0.0034302394    0.1154578074    0.2318940850
BO51       -0.0020376280    0.1313023169   -0.1939655932
BO62        0.0038788354   -0.1433037309   -0.1926428126
BO73       -0.0050229741   -0.1400693121   -0.1958527781
BO83       -0.0021485453   -0.1103516850    0.2389810713
BO92       -0.0147153228   -0.1072923596    0.2348753721
BO102      -0.1919410213    0.1966322145   -0.0111795131
BO113       0.1997283752    0.1990771317   -0.0051431552
 STOP
 QUADRUPOLES 
A01C       -3.9627209794   -4.0252932416   -4.1626349676   -0.0043818321 >
            0.0014673375   -0.0090673847
A02C       -4.4057512743   -4.2305768412   -4.2848970363    0.1160429805 >
           -0.0159126944    0.0080272243
A03C       -4.4325590344   -4.2786180289   -4.3231085381   -0.1294335462 >
            0.0025888685    0.0013904729
A04H       -0.5541854293   -0.5517071094   -0.5437763298   -0.0007058352 >
           -0.0007661621    0.0063626932
A05H       -0.6022815879   -0.6045518318   -0.5950056952    0.0000926526 >
           -0.0000642181   -0.0022626170
A06H       -0.5579390132   -0.5481681244   -0.5435248041    0.0021536284 >
            0.0009252760    0.0040975485
A07H       -0.5718516789   -0.5642384969   -0.5587959874   -0.0019895439 >
           -0.0009638979    0.0040777712
A08H       -0.5293822311   -0.5238914998   -0.5180323996   -0.0038919759 >
            0.0028094703   -0.0056903316
A09H       -0.5095763621   -0.5036516133   -0.4975194222    0.0039730773 >
           -0.0035185805   -0.0055864675
A10H       -0.4372145619   -0.4476747407   -0.4528074126   -0.0088498763 >
            0.0012782714   -0.0008022254
A11H       -0.4029229876   -0.4167443193   -0.4224007474    0.0100800540 >
           -0.0005388774   -0.0002866618
BO21        1.1681634440    1.4796663931    1.3339475111   -0.1200504923 >
            0.0046816120   -0.0130396752
BO31        0.7388002956    1.0643218997    1.0254675629   -0.0311318216 >
            0.0116664060    0.0066509533
BO41       -0.2440674766   -0.2346071721   -0.2049550989   -0.0000248321 >
            0.0005503286   -0.0130409807
BO51       -0.2525031217   -0.2584638878   -0.2367539783   -0.0001986675 >
           -0.0001336479   -0.0063440565
BO62       -0.2800100666   -0.2772462428   -0.2664562870   -0.0026302525 >
           -0.0052368823    0.0036185253
BO73       -0.2739915582   -0.2698300440   -0.2579913233    0.0026962862 >
            0.0055325757    0.0043193014
BO83       -0.2546836267   -0.2331418942   -0.2130046945    0.0014591978 >
           -0.0014029644    0.0170040086
BO92       -0.2702357540   -0.2514768534   -0.2329836860   -0.0011503276 >
            0.0004754498    0.0157040570
BO102      -0.2817284587   -0.2594239173   -0.2440483717    0.0009512450 >
           -0.0017621555    0.0021172928
BO113      -0.3013277304   -0.2810376451   -0.2632384275   -0.0017299451 >
            0.0006431023    0.0007279293
 STOP
 OCTUPOLES  
A01C       -0.0114909719    0.3513653493   -0.1794457177   -0.0074729867 >
           -0.0530766025   -0.0134059158   -0.0552453562   -0.0081762021 >
            0.2736566673    0.0042407353
A02C        1.6885835071   -0.4821415645    0.0791117538   -0.0306207397 >
            0.0221758061    0.4589724211    0.0081810459    0.5031167925 >
           -0.3228657365    0.0220140849
A03C       -1.7726816408   -0.6005803852   -0.0107984862   -0.0688264957 >
           -0.0063589461   -0.5175831820   -0.0129823019   -0.5566729348 >
           -0.3590791028   -0.0063482212
A04H       -0.0192058978   -0.0229274716    0.0205199720   -0.0082547645 >
            0.0033938543   -0.0065392285    0.0078817507   -0.0064627324 >
           -0.0015007187   -0.0000833352
A05H        0.0040591937   -0.1032431895    0.0369526338   -0.0344368680 >
            0.0153961939    0.0012654657    0.0126455404    0.0011931445 >
           -0.0292657875    0.0000536500
A06H        0.0518406152    0.0452661758    0.0234100715    0.0125052920 >
            0.0072944597    0.0068440791    0.0065746347    0.0074779528 >
            0.0101689930   -0.0007046024
A07H       -0.0510036501    0.0552487777    0.0254020071    0.0154322920 >
            0.0072818102   -0.0069752164    0.0073078681   -0.0074446976 >
            0.0133301559    0.0007595297
A08H       -0.0064827878    0.0152375418    0.0098589700    0.0014479481 >
            0.0047321220    0.0067219587    0.0043610094    0.0062651168 >
           -0.0005325130   -0.0015742745
A09H        0.0040395145    0.0060053672    0.0142484975   -0.0016634737 >
            0.0055221839   -0.0074657654    0.0053999528   -0.0079698045 >
           -0.0036908952    0.0019246359
A10H       -0.1206104235    0.0184586703   -0.0053869712    0.0125944132 >
           -0.0029022882   -0.0425345484   -0.0024125905   -0.0364945926 >
            0.0046888449    0.0008712896
A11H        0.1670014183    0.0375345340   -0.0031674687    0.0201877690 >
           -0.0015455984    0.0562947346   -0.0012417733    0.0506409054 >
            0.0113256700   -0.0003041466
BO21       -0.7196649458    1.3338383613    0.0624655700    0.4201911931 >
            0.0212702042   -0.3779717025    0.0318160266   -0.2810285846 >
            0.3940762217   -0.0140743343
BO31       -0.4709516268    0.4835700358    0.1728973484    0.0537023480 >
            0.0690895919   -0.1706121235    0.0633075268   -0.1507454718 >
            0.1277702129    0.0078805361
BO41        0.0194411425    0.3749200381    0.8690564128    0.1257338497 >
            0.2791822242    0.0068683149    0.2975115850    0.0068917014 >
            0.1117887611   -0.0003954099
BO51       -0.0068368020    0.4493713685   -0.6468015194    0.1473047557 >
           -0.2120154376   -0.0024095526   -0.2202053669   -0.0025879759 >
            0.1487717602   -0.0000786611
BO62        0.0228827968   -0.5088406954   -0.6737823787   -0.1685280818 >
           -0.2243982558    0.0068918390   -0.2272521141    0.0028197582 >
           -0.1697440243   -0.0012689860
BO73       -0.0315490698   -0.4989285876   -0.6821275513   -0.1653653724 >
           -0.2276623716   -0.0093709414   -0.2300606937   -0.0050547266 >
           -0.1663412404    0.0012732623
BO83       -0.0444017492   -0.3683865749    0.9170022830   -0.1257599801 >
            0.2999871120   -0.0130789403    0.3129210798   -0.0100075450 >
           -0.1105926030   -0.0001386148
BO92       -0.0218667474   -0.3625349650    0.8983091237   -0.1235680874 >
            0.2945112688   -0.0087893836    0.3057963721   -0.0118268839 >
           -0.1104338179   -0.0001507988
BO102      -0.7036860803    0.7960076231   -0.0366807748    0.2645102017 >
           -0.0128679623   -0.2376704328   -0.0096139027   -0.2329643750 >
            0.2840994072   -0.0010482451
BO113       0.7393075112    0.8299308397   -0.0188833541    0.2748921981 >
           -0.0062149763    0.2501659020   -0.0051897859    0.2454992847 >
            0.2957558384    0.0003211809
 STOP
 POLARIZABLE POINTS
CT1  -3.5726861865  -0.3016953775   0.0438171605
    5.9575018248    3.4734280295    2.3059411784    1.6986210368 >
   -0.1078671946   -0.0612035375    1.4766682725   -0.0813328051 >
   -0.0619667874
CT2   2.5213278298   1.2834755223  -1.1871958535
    2.9741300270    3.5810368648    4.7343858280    0.6378220359 >
   -0.6207333374   -1.7466571761    0.4180960310   -0.3428556642 >
   -1.6421286286
CT3   0.0057156362  -1.8930076806   1.1427468491
    2.8377476691    4.0014727920    4.3896994736   -0.0121821602 >
    0.0265377397   -2.0458799861   -0.0246971511    0.0284556361 >
   -1.8610876685
CT4  -0.0375657888  -1.9082948147  -1.1542069373
    2.8511597354    4.1122417480    4.4056380483    0.0345847983 >
    0.0558213164    2.1096702706    0.0276983592    0.0405522805 >
    1.9115445326
CT5  -2.3824098657   1.3498393478   1.1328151238
    2.9362670671    3.7775069976    4.5629580697   -0.4886497767 >
   -0.3261982441    1.8289132287   -0.2731199241   -0.1172010937 >
    1.7690614397
CT6   3.5085694682  -0.3959338972   0.1109809171
    5.6045116986    3.7452648379    2.3254530399   -1.8438402515 >
    0.2732439062   -0.1880352179   -1.5518644135    0.2092073055 >
   -0.1858430737
CT7   2.3875886103   1.3528414885   1.1222345473
    2.9164573974    3.7626968514    4.4855284398    0.4726831077 >
    0.3059663112    1.8027319280    0.2521750297    0.0933850601 >
    1.7021787557
CT8  -1.2209849281  -0.2746017429  -0.0006673800
    6.1057252402    3.4395792644    1.8090616937   -2.4186696695 >
   -0.0158098501    0.0307769334   -2.0616651193   -0.0003269094 >
    0.0306971298
CT9  -2.4240830914   1.3125165707  -1.1539805949
    2.9304359907    3.6657565729    4.6717186173   -0.5432803234 >
    0.4265690758   -1.7943150618   -0.3202185787    0.1882134410 >
   -1.7351460068
CT10   1.2005992197  -0.2524119938  -0.0230759577
    6.6414841098    3.5432772710    1.8707364271    2.5875372111 >
    0.0297162139    0.0023185181    2.1810139523    0.0281962389 >
    0.0095505487
 STOP
 DYNAMIC POLARIZABLE POINTS
CT  1  -3.5726861865  -0.3016953775   0.0438171605 -- FOR W= 0.002792I A.U.
    5.9570914173    3.4729353935    2.3055231020    1.6980424258 >
   -0.1079776218   -0.0613048688    1.4762587362   -0.0812383217 >
   -0.0618946637
CT  2   2.5213278298   1.2834755223  -1.1871958535
    2.9741502324    3.5811354203    4.7339294266    0.6377717978 >
   -0.6211590710   -1.7466230689    0.4179619247   -0.3433255107 >
   -1.6420340571
CT  3   0.0057156362  -1.8930076806   1.1427468491
    2.8377650252    4.0016023291    4.3895432153   -0.0121780138 >
    0.0262988653   -2.0462521539   -0.0247895045    0.0284079354 >
   -1.8617636607
CT  4  -0.0375657888  -1.9082948147  -1.1542069373
    2.8511550377    4.1123746948    4.4055056510    0.0345838656 >
    0.0557294282    2.1096900313    0.0276669260    0.0404836098 >
    1.9122316738
CT  5  -2.3824098657   1.3498393478   1.1328151238
    2.9361099719    3.7775157635    4.5625734362   -0.4888297644 >
   -0.3267588944    1.8285528997   -0.2730252525   -0.1176394338 >
    1.7689819886
CT  6   3.5085694682  -0.3959338972   0.1109809171
    5.6042583335    3.7447179854    2.3249616971   -1.8434087862 >
    0.2731069421   -0.1881032705   -1.5514157749    0.2092932665 >
   -0.1858901545
CT  7   2.3875886103   1.3528414885   1.1222345473
    2.9164013692    3.7627622137    4.4852834670    0.4727894381 >
    0.3063080111    1.8023862755    0.2521094461    0.0937597313 >
    1.7021716886
CT  8  -1.2209849281  -0.2746017429  -0.0006673800
    6.1058965518    3.4396366739    1.8098666628   -2.4186492101 >
   -0.0160011725    0.0305471014   -2.0619555281   -0.0005366032 >
    0.0307834384
CT  9  -2.4240830914   1.3125165707  -1.1539805949
    2.9303714252    3.6657934818    4.6716626742   -0.5433727231 >
    0.4268186032   -1.7942414039   -0.3201075658    0.1886583176 >
   -1.7353101949
CT 10   1.2005992197  -0.2524119938  -0.0230759577
    6.6417918837    3.5434900965    1.8714712847    2.5874890420 >
    0.0295152152    0.0021063795    2.1815620652    0.0279816089 >
    0.0094791018
CT  1  -3.5726861865  -0.3016953775   0.0438171605 -- FOR W= 0.015107I A.U.
    5.9521089220    3.4708401405    2.3046483472    1.6962681882 >
   -0.1078543480   -0.0612349034    1.4746297025   -0.0811683429 >
   -0.0618327553
CT  2   2.5213278298   1.2834755223  -1.1871958535
    2.9726017522    3.5789170118    4.7305426169    0.6370808937 >
   -0.6204922614   -1.7448028592    0.4174811958   -0.3429021795 >
   -1.6403028491
CT  3   0.0057156362  -1.8930076806   1.1427468491
    2.8362770691    3.9987005803    4.3864885012   -0.0121960753 >
    0.0262807518   -2.0440146197   -0.0247669317    0.0283721734 >
   -1.8595381432
CT  4  -0.0375657888  -1.9082948147  -1.1542069373
    2.8496375406    4.1093052209    4.4024347823    0.0345401537 >
    0.0556698879    2.1073226013    0.0276444263    0.0404546642 >
    1.9099328231
CT  5  -2.3824098657   1.3498393478   1.1328151238
    2.9345886930    3.7750547726    4.5593018107   -0.4882973456 >
   -0.3264206534    1.8266528034   -0.2726809335   -0.1174330858 >
    1.7670795806
CT  6   3.5085694682  -0.3959338972   0.1109809171
    5.5996370267    3.7423349940    2.3240747492   -1.8414381509 >
    0.2727826509   -0.1879046717   -1.5497540517    0.2090876425 >
   -0.1857113322
CT  7   2.3875886103   1.3528414885   1.1222345473
    2.9148842054    3.7603478458    4.4821291688    0.4722710737 >
    0.3059933788    1.8005256393    0.2517910532    0.0935879191 >
    1.7003858940
CT  8  -1.2209849281  -0.2746017429  -0.0006673800
    6.1009195657    3.4371180883    1.8088359188   -2.4164573623 >
   -0.0159739091    0.0304949853   -2.0600820497   -0.0005482389 >
    0.0307308053
CT  9  -2.4240830914   1.3125165707  -1.1539805949
    2.9288628755    3.6634625531    4.6682852245   -0.5427860436 >
    0.4263685926   -1.7923747427   -0.3197332330    0.1883872103 >
   -1.7334417564
CT 10   1.2005992197  -0.2524119938  -0.0230759577
    6.6360461846    3.5407887947    1.8703873003    2.5850265843 >
    0.0294673790    0.0021113493    2.1795100897    0.0279480491 >
    0.0094705523
CT  1  -3.5726861865  -0.3016953775   0.0438171605 -- FOR W= 0.039002I A.U.
    5.9230828854    3.4586174625    2.2995305838    1.6859385141 >
   -0.1071367577   -0.0608279065    1.4651515145   -0.0807601056 >
   -0.0614719317
CT  2   2.5213278298   1.2834755223  -1.1871958535
    2.9635583938    3.5659767963    4.7107999725    0.6330552776 >
   -0.6166065405   -1.7342046077    0.4146850298   -0.3404422259 >
   -1.6302259550
CT  3   0.0057156362  -1.8930076806   1.1427468491
    2.8275888072    3.9817936511    4.3686817320   -0.0122997441 >
    0.0261749523   -2.0309898198   -0.0246352594    0.0281644066 >
   -1.8465980891
CT  4  -0.0375657888  -1.9082948147  -1.1542069373
    2.8407777931    4.0914245936    4.3845337786    0.0342860316 >
    0.0553231490    2.0935449135    0.0275130925    0.0402856186 >
    1.8965667456
CT  5  -2.3824098657   1.3498393478   1.1328151238
    2.9257046558    3.7607045297    4.5402338390   -0.4851938703 >
   -0.3244466350    1.8155901374   -0.2706801147   -0.1162369204 >
    1.7560084001
CT  6   3.5085694682  -0.3959338972   0.1109809171
    5.5727153497    3.7284366454    2.3188858423   -1.8299673040 >
    0.2708955693   -0.1867484350   -1.5400830099    0.2078897955 >
   -0.1846691343
CT  7   2.3875886103   1.3528414885   1.1222345473
    2.9060246184    3.7462676030    4.4637417880    0.4692495130 >
    0.3041569721    1.7896919080    0.2499407949    0.0925924036 >
    1.6899913934
CT  8  -1.2209849281  -0.2746017429  -0.0006673800
    6.0719189785    3.4224480968    1.8028325956   -2.4036828732 >
   -0.0158155922    0.0301926530   -2.0491721554   -0.0006159876 >
    0.0304255210
CT  9  -2.4240830914   1.3125165707  -1.1539805949
    2.9200524687    3.6498686087    4.6486006114   -0.5393666425 >
    0.4237440209   -1.7815067100   -0.3175564274    0.1868136786 >
   -1.7225681881
CT 10   1.2005992197  -0.2524119938  -0.0230759577
    6.6025770933    3.5250579329    1.8640746235    2.5706789194 >
    0.0291901229    0.0021400044    2.1675614449    0.0277532358 >
    0.0094206390
CT  1  -3.5726861865  -0.3016953775   0.0438171605 -- FOR W= 0.077996I A.U.
    5.8233097853    3.4163869836    2.2816539230    1.6505141109 >
   -0.1046774918   -0.0594366293    1.4327266863   -0.0793495872 >
   -0.0602294934
CT  2   2.5213278298   1.2834755223  -1.1871958535
    2.9321787374    3.5212786029    4.6427743672    0.6192102408 >
   -0.6032360490   -1.6978479741    0.4051300533   -0.3320667139 >
   -1.5956979630
CT  3   0.0057156362  -1.8930076806   1.1427468491
    2.7974626450    3.9236437084    4.3073262203   -0.0126359374 >
    0.0258074614   -1.9863527262   -0.0241803897    0.0274576169 >
   -1.8024417165
CT  4  -0.0375657888  -1.9082948147  -1.1542069373
    2.8100701061    4.0299716214    4.3228525222    0.0334194554 >
    0.0541329506    2.0463693340    0.0270583488    0.0396990767 >
    1.8509611139
CT  5  -2.3824098657   1.3498393478   1.1328151238
    2.8948834678    3.7112002931    4.4745745430   -0.4745040495 >
   -0.3176163081    1.7776493595   -0.2638675670   -0.1122016844 >
    1.7181022585
CT  6   3.5085694682  -0.3959338972   0.1109809171
    5.4801781589    3.6804544223    2.3007631582   -1.7906588160 >
    0.2644367271   -0.1827835847   -1.5069643272    0.2037729697 >
   -0.1810810562
CT  7   2.3875886103   1.3528414885   1.1222345473
    2.8752937989    3.6976709669    4.4003840526    0.4588417551 >
    0.2978005671    1.7525262362    0.2436395965    0.0892400196 >
    1.6543766526
CT  8  -1.2209849281  -0.2746017429  -0.0006673800
    5.9721494252    3.3720502076    1.7822127133   -2.3597017534 >
   -0.0152780210    0.0291699040   -2.0117256319   -0.0008481881 >
    0.0293932589
CT  9  -2.4240830914   1.3125165707  -1.1539805949
    2.8894776308    3.6029460246    4.5808198499   -0.5275930770 >
    0.4146849956   -1.7442330557   -0.3101243687    0.1814801060 >
   -1.6853376964
CT 10   1.2005992197  -0.2524119938  -0.0230759577
    6.4875744666    3.4710597353    1.8424015884    2.5213336460 >
    0.0282552901    0.0022346627    2.1265593487    0.0270921626 >
    0.0092475144
CT  1  -3.5726861865  -0.3016953775   0.0438171605 -- FOR W= 0.138651I A.U.
    5.5569615082    3.3019776015    2.2317290983    1.5565736815 >
   -0.0981707038   -0.0557808692    1.3473499459   -0.0755330067 >
   -0.0569001609
CT  2   2.5213278298   1.2834755223  -1.1871958535
    2.8461434483    3.4002698201    4.4599175338    0.5822227694 >
   -0.5674653517   -1.6013711037    0.3800456990   -0.3103033185 >
   -1.5043673859
CT  3   0.0057156362  -1.8930076806   1.1427468491
    2.7150341033    3.7680976885    4.1423870678   -0.0133830953 >
    0.0247953216   -1.8682390306   -0.0229500063    0.0256258996 >
   -1.6869896815
CT  4  -0.0375657888  -1.9082948147  -1.1542069373
    2.7261502540    3.8659316122    4.1570308320    0.0311581279 >
    0.0509698322    1.9218425028    0.0258206978    0.0380924769 >
    1.7317525755
CT  5  -2.3824098657   1.3498393478   1.1328151238
    2.8104161148    3.5776662437    4.2983741364   -0.4458317456 >
   -0.2990736104    1.6770309372   -0.2461601188   -0.1019930375 >
    1.6180454140
CT  6   3.5085694682  -0.3959338972   0.1109809171
    5.2331525779    3.5507601513    2.2501693169   -1.6866383121 >
    0.2474100122   -0.1722746665   -1.4195083828    0.1927923117 >
   -0.1714657368
CT  7   2.3875886103   1.3528414885   1.1222345473
    2.7911172425    3.5664081120    4.2300522044    0.4309262349 >
    0.2805276513    1.6538916844    0.2272525825    0.0808023940 >
    1.5601808761
CT  8  -1.2209849281  -0.2746017429  -0.0006673800
    5.7052136955    3.2376871376    1.7272348551   -2.2418192126 >
   -0.0138937945    0.0265617281   -1.9121693154   -0.0014592846 >
    0.0267642952
CT  9  -2.4240830914   1.3125165707  -1.1539805949
    2.8056178664    3.4761688553    4.3989463504   -0.4960445749 >
    0.3902518691   -1.6453805873   -0.2906586610    0.1677976203 >
   -1.5870587134
CT 10   1.2005992197  -0.2524119938  -0.0230759577
    6.1809396926    3.3274319357    1.7846828996    2.3894682230 >
    0.0258919560    0.0024582248    2.0176334503    0.0253894735 >
    0.0087748817
CT  1  -3.5726861865  -0.3016953775   0.0438171605 -- FOR W= 0.233223I A.U.
    4.9656792242    3.0388727086    2.1089019894    1.3513704701 >
   -0.0840638098   -0.0479650195    1.1640150457   -0.0668418201 >
   -0.0494892933
CT  2   2.5213278298   1.2834755223  -1.1871958535
    2.6429286415    3.1224435140    4.0471091067    0.5003478494 >
   -0.4880184146   -1.3904892557    0.3264822533   -0.2649038766 >
   -1.3061095607
CT  3   0.0057156362  -1.8930076806   1.1427468491
    2.5212945385    3.4204823360    3.7698216451   -0.0142979846 >
    0.0223722464   -1.6118557602   -0.0201510670    0.0218343068 >
   -1.4429201721
CT  4  -0.0375657888  -1.9082948147  -1.1542069373
    2.5294279824    3.5010278037    3.7824506371    0.0264017237 >
    0.0440391859    1.6529718770    0.0229670624    0.0343228636 >
    1.4798987826
CT  5  -2.3824098657   1.3498393478   1.1328151238
    2.6110233977    3.2735627241    3.9018801815   -0.3818805604 >
   -0.2567112815    1.4573435483   -0.2091564855   -0.0820454597 >
    1.4018319665
CT  6   3.5085694682  -0.3959338972   0.1109809171
    4.6846331124    3.2541830908    2.1257823284   -1.4605073070 >
    0.2107980584   -0.1493745475   -1.2304772393    0.1685233253 >
   -0.1500087719
CT  7   2.3875886103   1.3528414885   1.1222345473
    2.5926425349    3.2666032840    3.8452939796    0.3686759366 >
    0.2409822946    1.4382165121    0.1929761105    0.0645188587 >
    1.3557255793
CT  8  -1.2209849281  -0.2746017429  -0.0006673800
    5.1099552321    2.9397551692    1.6048167817   -1.9784192791 >
   -0.0110920256    0.0213698355   -1.6931794080   -0.0027259356 >
    0.0215475832
CT  9  -2.4240830914   1.3125165707  -1.1539805949
    2.6073303340    3.1863869705    3.9898579886   -0.4257979999 >
    0.3351470845   -1.4295322905   -0.2492844188    0.1401128571 >
   -1.3746761296
CT 10   1.2005992197  -0.2524119938  -0.0230759577
    5.5026221503    3.0106731529    1.6564616128    2.0968649884 >
    0.0212627760    0.0028046795    1.7785848573    0.0218951450 >
    0.0076875021
CT  1  -3.5726861865  -0.3016953775   0.0438171605 -- FOR W= 0.385897I A.U.
    3.9034936598    2.5309324879    1.8420989967    0.9959265031 >
   -0.0601680167   -0.0349448452    0.8563382462   -0.0507815009 >
   -0.0364004084
CT  2   2.5213278298   1.2834755223  -1.1871958535
    2.2321160258    2.5880243588    3.2791221694    0.3568566699 >
   -0.3480205899   -1.0253634366    0.2370438677   -0.1921008308 >
   -0.9663578179
CT  3   0.0057156362  -1.8930076806   1.1427468491
    2.1329888101    2.7824962201    3.0747744375   -0.0136850452 >
    0.0174498488   -1.1742186001   -0.0150264748    0.0158878443 >
   -1.0440532899
CT  4  -0.0375657888  -1.9082948147  -1.1542069373
    2.1369545086    2.8367368225    3.0836766682    0.0187314927 >
    0.0320233222    1.1981121639    0.0175967287    0.0269250902 >
    1.0688151805
CT  5  -2.3824098657   1.3498393478   1.1328151238
    2.2078892381    2.6968599000    3.1670518347   -0.2688397867 >
   -0.1794050878    1.0773208018   -0.1494182576   -0.0540433633 >
    1.0341097744
CT  6   3.5085694682  -0.3959338972   0.1109809171
    3.6975803987    2.6883970493    1.8558752237   -1.0721218806 >
    0.1496642743   -0.1100027355   -0.9095241899    0.1257101400 >
   -0.1116707801
CT  7   2.3875886103   1.3528414885   1.1222345473
    2.1921372586    2.6953309625    3.1279138374    0.2587648200 >
    0.1685633985    1.0643385503    0.1376051309    0.0421938531 >
    1.0052399215
CT  8  -1.2209849281  -0.2746017429  -0.0006673800
    4.0334610192    2.4005944691    1.3775191730   -1.5043673854 >
   -0.0070269469    0.0138693555   -1.3059705287   -0.0044136878 >
    0.0140593902
CT  9  -2.4240830914   1.3125165707  -1.1539805949
    2.2054820078    2.6332211320    3.2327231932   -0.3017776485 >
    0.2362670498   -1.0561300703   -0.1805687292    0.0982411967 >
   -1.0135316619
CT 10   1.2005992197  -0.2524119938  -0.0230759577
    4.2948092510    2.4433350400    1.4191456580    1.5772548259 >
    0.0146481966    0.0029389489    1.3586784899    0.0163603094 >
    0.0057082135
CT  1  -3.5726861865  -0.3016953775   0.0438171605 -- FOR W= 0.649114I A.U.
    2.4749942507    1.7586393917    1.3681634879    0.5551985466 >
   -0.0319734203   -0.0195163433    0.4872443391   -0.0292894909 >
   -0.0201277828
CT  2   2.5213278298   1.2834755223  -1.1871958535
    1.5728738175    1.7825726284    2.1817497131    0.1814248013 >
   -0.1764647111   -0.5724784877    0.1293246673   -0.1078126541 >
   -0.5471988890
CT  3   0.0057156362  -1.8930076806   1.1427468491
    1.5136596475    1.8750463579    2.0723027249   -0.0095331171 >
    0.0102784818   -0.6434887821   -0.0084555541    0.0093071558 >
   -0.5801141143
CT  4  -0.0375657888  -1.9082948147  -1.1542069373
    1.5144585066    1.9019781637    2.0763143649    0.0101093296 >
    0.0172040738    0.6526006228    0.0103171723    0.0161189125 >
    0.5918333834
CT  5  -2.3824098657   1.3498393478   1.1328151238
    1.5595234941    1.8434359012    2.1175832397   -0.1307986022 >
   -0.0834779188    0.6051380920   -0.0795869273   -0.0272858669 >
    0.5844173444
CT  6   3.5085694682  -0.3959338972   0.1109809171
    2.3623666625    1.8453691245    1.3771864045   -0.5954755021 >
    0.0788095422   -0.0617239314   -0.5188109396    0.0712403407 >
   -0.0627321789
CT  7   2.3875886103   1.3528414885   1.1222345473
    1.5490826120    1.8453231307    2.0965868636    0.1250070395 >
    0.0783334262    0.5988387378    0.0729778820    0.0213293419 >
    0.5719055665
CT  8  -1.2209849281  -0.2746017429  -0.0006673800
    2.5742765223    1.6434384525    1.0293634008   -0.8822715400 >
   -0.0034363196    0.0067527149   -0.7961164288   -0.0048293369 >
    0.0070230543
CT  9  -2.4240830914   1.3125165707  -1.1539805949
    1.5580007627    1.8074417236    2.1548956859   -0.1498112644 >
    0.1145314882   -0.5923786181   -0.0978051770    0.0533123588 >
   -0.5722353307
CT 10   1.2005992197  -0.2524119938  -0.0230759577
    2.6967503941    1.6589313603    1.0567894185    0.9096265634 >
    0.0080624965    0.0022976906    0.8143934214    0.0097696590 >
    0.0032696767
CT  1  -3.5726861865  -0.3016953775   0.0438171605 -- FOR W= 1.153904I A.U.
    1.1515551099    0.9138022000    0.7630708041    0.2083891742 >
   -0.0112983903   -0.0075815590    0.1945361392   -0.0111678181 >
   -0.0075136816
CT  2   2.5213278298   1.2834755223  -1.1871958535
    0.8251270490    0.9159638318    1.0761344844    0.0545108244 >
   -0.0534799921   -0.2141187233    0.0449207298   -0.0410040115 >
   -0.2106846029
CT  3   0.0057156362  -1.8930076806   1.1427468491
    0.8046221458    0.9452272894    1.0413195515   -0.0040851132 >
    0.0040768466   -0.2350784897   -0.0033003835    0.0041023241 >
   -0.2223862668
CT  4  -0.0375657888  -1.9082948147  -1.1542069373
    0.8045605521    0.9542081703    1.0417155969    0.0038197164 >
    0.0058531896    0.2370768782    0.0041329424    0.0062538181 >
    0.2257843110
CT  5  -2.3824098657   1.3498393478   1.1328151238
    0.8208547806    0.9404073625    1.0533579902   -0.0341602791 >
   -0.0188546448    0.2287995121   -0.0257255080   -0.0089913633 >
    0.2254454613